sat
(= |goto_symex::&92;guard#1| true)
(= |goto_symex::&92;guard#2| false)
(= |memory_model::choice_rf_1_38_0_11_T_0| false)
(= |memory_model::choice_rf_1_38_2_17_T_1| true)
(= |memory_model::choice_rf_1_38_3_17_T_2| false)
(= |memory_model::choice_rf_1_38_4_38_T_3| false)
(= |memory_model::choice_rf_2_16_0_11_T_4| false)
(= |memory_model::choice_rf_2_16_1_39_T_5| false)
(= |memory_model::choice_rf_2_16_3_17_T_6| true)
(= |memory_model::choice_rf_2_16_4_38_T_7| false)
(= |memory_model::choice_rf_3_16_0_11_T_8| true)
(= |memory_model::choice_rf_3_16_1_39_T_9| false)
(= |memory_model::choice_rf_3_16_2_17_T_10| false)
(= |memory_model::choice_rf_3_16_4_38_T_11| false)
(= |memory_model::choice_rf_4_37_0_11_T_12| false)
(= |memory_model::choice_rf_4_37_1_39_T_13| false)
(= |memory_model::choice_rf_4_37_2_17_T_14| false)
(= |memory_model::choice_rf_4_37_3_17_T_15| true)
(= |memory_model::choice_rf_0_47_0_9_T_16| false)
(= |memory_model::choice_rf_0_47_0_43_T_17| true)
(= |memory_model::choice_rf_0_52_0_9_T_18| false)
(= |memory_model::choice_rf_0_52_0_43_T_19| false)
(= |memory_model::choice_rf_0_52_0_48_T_20| true)
(= |memory_model::choice_rf_0_57_0_9_T_21| false)
(= |memory_model::choice_rf_0_57_0_43_T_22| false)
(= |memory_model::choice_rf_0_57_0_48_T_23| false)
(= |memory_model::choice_rf_0_57_0_53_T_24| true)
(= |memory_model::choice_rf_0_81_0_39_F_25| false)
(= |memory_model::choice_rf_0_81_1_23_F_26| false)
(= |memory_model::choice_rf_0_81_2_0_F_27| true)
(= |memory_model::choice_rf_1_22_0_39_F_28| false)
(= |memory_model::choice_rf_1_22_2_0_F_29| false)
(= |memory_model::choice_rf_0_61_0_12_F_30| false)
(= |memory_model::choice_rf_0_61_1_37_F_31| true)
(= |memory_model::choice_rf_0_61_2_15_F_32| false)
(= |memory_model::choice_rf_0_61_3_15_F_33| false)
(= |memory_model::choice_rf_0_61_4_36_F_34| false)
(= |memory_model::choice_rf_1_36_0_12_F_35| false)
(= |memory_model::choice_rf_1_36_2_15_F_36| false)
(= |memory_model::choice_rf_1_36_3_15_F_37| true)
(= |memory_model::choice_rf_1_36_4_36_F_38| false)
(= |memory_model::choice_rf_2_14_0_12_F_39| false)
(= |memory_model::choice_rf_2_14_1_37_F_40| false)
(= |memory_model::choice_rf_2_14_3_15_F_41| false)
(= |memory_model::choice_rf_2_14_4_36_F_42| true)
(= |memory_model::choice_rf_3_14_0_12_F_43| false)
(= |memory_model::choice_rf_3_14_1_37_F_44| false)
(= |memory_model::choice_rf_3_14_2_15_F_45| true)
(= |memory_model::choice_rf_3_14_4_36_F_46| false)
(= |memory_model::choice_rf_4_35_0_12_F_47| true)
(= |memory_model::choice_rf_4_35_1_37_F_48| false)
(= |memory_model::choice_rf_4_35_2_15_F_49| false)
(= |memory_model::choice_rf_4_35_3_15_F_50| false)
(= |memory_model::choice_rf_0_79_0_13_F_51| false)
(= |memory_model::choice_rf_0_79_4_3_F_52| true)
(= |memory_model::choice_rf_0_77_0_14_F_53| false)
(= |memory_model::choice_rf_0_77_4_11_F_54| true)
(= |memory_model::choice_rf_4_2_0_15_F_55| false)
(= |memory_model::choice_rf_4_2_4_1_F_56| true)
(= |memory_model::choice_rf_0_64_0_16_F_57| false)
(= |memory_model::choice_rf_0_64_1_35_F_58| false)
(= |memory_model::choice_rf_0_64_2_13_F_59| false)
(= |memory_model::choice_rf_0_64_3_13_F_60| true)
(= |memory_model::choice_rf_0_64_4_17_F_61| false)
(= |memory_model::choice_rf_0_64_4_34_F_62| false)
(= |memory_model::choice_rf_1_24_0_16_F_63| false)
(= |memory_model::choice_rf_1_24_0_75_F_64| false)
(= |memory_model::choice_rf_1_24_2_13_F_65| false)
(= |memory_model::choice_rf_1_24_3_13_F_66| false)
(= |memory_model::choice_rf_1_24_4_17_F_67| true)
(= |memory_model::choice_rf_1_24_4_34_F_68| false)
(= |memory_model::choice_rf_2_2_0_16_F_69| true)
(= |memory_model::choice_rf_2_2_0_75_F_70| false)
(= |memory_model::choice_rf_2_2_1_35_F_71| false)
(= |memory_model::choice_rf_2_2_3_13_F_72| false)
(= |memory_model::choice_rf_2_2_4_17_F_73| false)
(= |memory_model::choice_rf_2_2_4_34_F_74| false)
(= |memory_model::choice_rf_3_2_0_16_F_75| false)
(= |memory_model::choice_rf_3_2_0_75_F_76| false)
(= |memory_model::choice_rf_3_2_1_35_F_77| false)
(= |memory_model::choice_rf_3_2_2_13_F_78| false)
(= |memory_model::choice_rf_3_2_4_17_F_79| false)
(= |memory_model::choice_rf_3_2_4_34_F_80| true)
(= |memory_model::choice_rf_4_10_0_16_F_81| false)
(= |memory_model::choice_rf_4_10_0_75_F_82| false)
(= |memory_model::choice_rf_4_10_1_35_F_83| false)
(= |memory_model::choice_rf_4_10_2_13_F_84| true)
(= |memory_model::choice_rf_4_10_3_13_F_85| false)
(= |memory_model::choice_rf_4_23_0_16_F_86| false)
(= |memory_model::choice_rf_4_23_0_75_F_87| false)
(= |memory_model::choice_rf_4_23_1_35_F_88| true)
(= |memory_model::choice_rf_4_23_2_13_F_89| false)
(= |memory_model::choice_rf_4_23_3_13_F_90| false)
(= |memory_model::choice_rf_4_23_4_17_F_91| false)
(= |memory_model::choice_rf_0_69_0_19_F_92| true)
(= |memory_model::choice_rf_1_9_0_19_F_93| true)
(= |memory_model::choice_rf_1_9_0_72_F_94| false)
(= |memory_model::choice_rf_1_3_0_20_F_95| true)
(= |memory_model::choice_rf_1_29_0_20_F_96| false)
(= |memory_model::choice_rf_1_29_1_12_F_97| true)
(= |memory_model::choice_rf_1_2_0_21_F_98| true)
(= |memory_model::choice_rf_1_2_2_10_F_99| false)
(= |memory_model::choice_rf_2_7_0_21_F_100| true)
(= |memory_model::choice_rf_1_8_0_22_F_101| true)
(= |memory_model::choice_rf_1_8_3_10_F_102| false)
(= |memory_model::choice_rf_3_7_0_22_F_103| true)
(= |memory_model::choice_rf_1_7_0_23_F_104| true)
(= |memory_model::choice_rf_1_7_4_13_F_105| false)
(= |memory_model::choice_rf_1_7_4_31_F_106| false)
(= |memory_model::choice_rf_4_8_0_23_F_107| true)
(= |memory_model::choice_rf_4_28_0_23_F_108| false)
(= |memory_model::choice_rf_4_28_4_13_F_109| true)
(= |memory_model::choice_rf_0_66_0_24_F_110| false)
(= |memory_model::choice_rf_0_66_1_17_F_111| true)
(= |memory_model::choice_rf_1_6_0_24_F_112| false)
(= |memory_model::choice_rf_1_6_0_71_F_113| false)
(= |memory_model::choice_rf_1_5_0_25_F_114| false)
(= |memory_model::choice_rf_1_26_0_25_F_115| false)
(= |memory_model::choice_rf_1_26_1_16_F_116| true)
(= |memory_model::choice_rf_1_1_0_26_F_117| false)
(= |memory_model::choice_rf_1_1_2_9_F_118| false)
(= |memory_model::choice_rf_2_4_0_26_F_119| false)
(= |memory_model::choice_rf_2_4_1_14_F_120| true)
(= |memory_model::choice_rf_1_0_0_27_F_121| false)
(= |memory_model::choice_rf_1_0_3_9_F_122| false)
(= |memory_model::choice_rf_3_4_0_27_F_123| false)
(= |memory_model::choice_rf_3_4_1_13_F_124| true)
(= |memory_model::choice_rf_1_4_0_28_F_125| false)
(= |memory_model::choice_rf_1_4_4_12_F_126| false)
(= |memory_model::choice_rf_1_4_4_30_F_127| false)
(= |memory_model::choice_rf_4_6_0_28_F_128| false)
(= |memory_model::choice_rf_4_6_1_15_F_129| true)
(= |memory_model::choice_rf_4_25_0_28_F_130| false)
(= |memory_model::choice_rf_4_25_1_15_F_131| false)
(= |memory_model::choice_rf_4_25_4_12_F_132| true)
(= |memory_model::choice_rf_0_68_0_31_F_133| false)
(= |memory_model::choice_rf_0_68_1_20_F_134| false)
(= |memory_model::choice_rf_0_68_4_16_F_135| true)
(= |memory_model::choice_rf_1_11_0_31_F_136| true)
(= |memory_model::choice_rf_1_11_4_16_F_137| false)
(= |memory_model::choice_rf_1_28_0_31_F_138| false)
(= |memory_model::choice_rf_1_28_1_20_F_139| false)
(= |memory_model::choice_rf_1_28_4_16_F_140| true)
(= |memory_model::choice_rf_2_6_0_31_F_141| false)
(= |memory_model::choice_rf_2_6_1_20_F_142| true)
(= |memory_model::choice_rf_2_6_4_16_F_143| false)
(= |memory_model::choice_rf_3_6_0_31_F_144| false)
(= |memory_model::choice_rf_3_6_1_20_F_145| false)
(= |memory_model::choice_rf_3_6_4_16_F_146| true)
(= |memory_model::choice_rf_4_5_0_31_F_147| false)
(= |memory_model::choice_rf_4_5_1_20_F_148| true)
(= |memory_model::choice_rf_4_27_0_31_F_149| false)
(= |memory_model::choice_rf_4_27_1_20_F_150| false)
(= |memory_model::choice_rf_4_27_4_16_F_151| true)
(= |memory_model::choice_rf_0_70_0_32_F_152| false)
(= |memory_model::choice_rf_0_70_1_18_F_153| false)
(= |memory_model::choice_rf_0_70_1_34_F_154| false)
(= |memory_model::choice_rf_0_70_2_12_F_155| false)
(= |memory_model::choice_rf_0_70_3_12_F_156| true)
(= |memory_model::choice_rf_0_70_4_14_F_157| false)
(= |memory_model::choice_rf_0_70_4_33_F_158| false)
(= |memory_model::choice_rf_1_10_0_32_F_159| true)
(= |memory_model::choice_rf_1_10_0_74_F_160| false)
(= |memory_model::choice_rf_1_10_2_12_F_161| false)
(= |memory_model::choice_rf_1_10_3_12_F_162| false)
(= |memory_model::choice_rf_1_10_4_14_F_163| false)
(= |memory_model::choice_rf_1_10_4_33_F_164| false)
(= |memory_model::choice_rf_1_30_0_32_F_165| false)
(= |memory_model::choice_rf_1_30_0_74_F_166| false)
(= |memory_model::choice_rf_1_30_1_18_F_167| false)
(= |memory_model::choice_rf_1_30_2_12_F_168| false)
(= |memory_model::choice_rf_1_30_3_12_F_169| false)
(= |memory_model::choice_rf_1_30_4_14_F_170| true)
(= |memory_model::choice_rf_1_30_4_33_F_171| false)
(= |memory_model::choice_rf_2_8_0_32_F_172| false)
(= |memory_model::choice_rf_2_8_0_74_F_173| false)
(= |memory_model::choice_rf_2_8_1_18_F_174| true)
(= |memory_model::choice_rf_2_8_1_34_F_175| false)
(= |memory_model::choice_rf_2_8_3_12_F_176| false)
(= |memory_model::choice_rf_2_8_4_14_F_177| false)
(= |memory_model::choice_rf_2_8_4_33_F_178| false)
(= |memory_model::choice_rf_3_8_0_32_F_179| false)
(= |memory_model::choice_rf_3_8_0_74_F_180| false)
(= |memory_model::choice_rf_3_8_1_18_F_181| false)
(= |memory_model::choice_rf_3_8_1_34_F_182| false)
(= |memory_model::choice_rf_3_8_2_12_F_183| false)
(= |memory_model::choice_rf_3_8_4_14_F_184| false)
(= |memory_model::choice_rf_3_8_4_33_F_185| true)
(= |memory_model::choice_rf_4_9_0_32_F_186| false)
(= |memory_model::choice_rf_4_9_0_74_F_187| false)
(= |memory_model::choice_rf_4_9_1_18_F_188| false)
(= |memory_model::choice_rf_4_9_1_34_F_189| false)
(= |memory_model::choice_rf_4_9_2_12_F_190| true)
(= |memory_model::choice_rf_4_9_3_12_F_191| false)
(= |memory_model::choice_rf_4_29_0_32_F_192| false)
(= |memory_model::choice_rf_4_29_0_74_F_193| false)
(= |memory_model::choice_rf_4_29_1_18_F_194| false)
(= |memory_model::choice_rf_4_29_1_34_F_195| true)
(= |memory_model::choice_rf_4_29_2_12_F_196| false)
(= |memory_model::choice_rf_4_29_3_12_F_197| false)
(= |memory_model::choice_rf_4_29_4_14_F_198| false)
(= |memory_model::choice_rf_0_65_0_33_F_199| false)
(= |memory_model::choice_rf_0_65_1_21_F_200| false)
(= |memory_model::choice_rf_0_65_4_15_F_201| true)
(= |memory_model::choice_rf_1_25_0_33_F_202| false)
(= |memory_model::choice_rf_1_25_1_21_F_203| false)
(= |memory_model::choice_rf_1_25_4_15_F_204| true)
(= |memory_model::choice_rf_2_3_0_33_F_205| false)
(= |memory_model::choice_rf_2_3_1_21_F_206| true)
(= |memory_model::choice_rf_2_3_4_15_F_207| false)
(= |memory_model::choice_rf_3_3_0_33_F_208| false)
(= |memory_model::choice_rf_3_3_1_21_F_209| false)
(= |memory_model::choice_rf_3_3_4_15_F_210| true)
(= |memory_model::choice_rf_4_4_0_33_F_211| false)
(= |memory_model::choice_rf_4_4_1_21_F_212| true)
(= |memory_model::choice_rf_4_24_0_33_F_213| false)
(= |memory_model::choice_rf_4_24_1_21_F_214| false)
(= |memory_model::choice_rf_4_24_4_15_F_215| true)
(= |memory_model::choice_rf_0_67_0_34_F_216| false)
(= |memory_model::choice_rf_0_67_1_19_F_217| false)
(= |memory_model::choice_rf_0_67_1_33_F_218| false)
(= |memory_model::choice_rf_0_67_2_11_F_219| false)
(= |memory_model::choice_rf_0_67_3_11_F_220| true)
(= |memory_model::choice_rf_0_67_4_21_F_221| false)
(= |memory_model::choice_rf_0_67_4_32_F_222| false)
(= |memory_model::choice_rf_1_27_0_34_F_223| false)
(= |memory_model::choice_rf_1_27_0_73_F_224| false)
(= |memory_model::choice_rf_1_27_1_19_F_225| false)
(= |memory_model::choice_rf_1_27_2_11_F_226| false)
(= |memory_model::choice_rf_1_27_3_11_F_227| false)
(= |memory_model::choice_rf_1_27_4_21_F_228| true)
(= |memory_model::choice_rf_1_27_4_32_F_229| false)
(= |memory_model::choice_rf_2_5_0_34_F_230| false)
(= |memory_model::choice_rf_2_5_0_73_F_231| false)
(= |memory_model::choice_rf_2_5_1_19_F_232| true)
(= |memory_model::choice_rf_2_5_1_33_F_233| false)
(= |memory_model::choice_rf_2_5_3_11_F_234| false)
(= |memory_model::choice_rf_2_5_4_21_F_235| false)
(= |memory_model::choice_rf_2_5_4_32_F_236| false)
(= |memory_model::choice_rf_3_5_0_34_F_237| false)
(= |memory_model::choice_rf_3_5_0_73_F_238| false)
(= |memory_model::choice_rf_3_5_1_19_F_239| false)
(= |memory_model::choice_rf_3_5_1_33_F_240| false)
(= |memory_model::choice_rf_3_5_2_11_F_241| false)
(= |memory_model::choice_rf_3_5_4_21_F_242| false)
(= |memory_model::choice_rf_3_5_4_32_F_243| true)
(= |memory_model::choice_rf_4_7_0_34_F_244| false)
(= |memory_model::choice_rf_4_7_0_73_F_245| false)
(= |memory_model::choice_rf_4_7_1_19_F_246| false)
(= |memory_model::choice_rf_4_7_1_33_F_247| false)
(= |memory_model::choice_rf_4_7_2_11_F_248| true)
(= |memory_model::choice_rf_4_7_3_11_F_249| false)
(= |memory_model::choice_rf_4_26_0_34_F_250| false)
(= |memory_model::choice_rf_4_26_0_73_F_251| false)
(= |memory_model::choice_rf_4_26_1_19_F_252| false)
(= |memory_model::choice_rf_4_26_1_33_F_253| true)
(= |memory_model::choice_rf_4_26_2_11_F_254| false)
(= |memory_model::choice_rf_4_26_3_11_F_255| false)
(= |memory_model::choice_rf_4_26_4_21_F_256| false)
(= |memory_model::choice_rf_0_63_0_35_F_257| false)
(= |memory_model::choice_rf_0_63_0_62_F_258| true)
(= |memory_model::choice_rf_0_76_0_36_F_259| false)
(= |memory_model::choice_rf_0_83_0_36_F_260| false)
(= |memory_model::choice_rf_0_83_0_82_F_261| true)
(= |memory_model::choice_rf_0_84_0_36_F_262| false)
(= |memory_model::choice_rf_0_84_0_82_F_263| true)
(= |memory_model::choice_rf_0_80_0_40_F_264| false)
(= |memory_model::choice_rf_0_80_2_1_F_265| false)
(= |memory_model::choice_rf_0_80_3_0_F_266| true)
(= |memory_model::choice_rf_0_78_0_41_F_267| false)
(= |memory_model::choice_rf_0_78_3_1_F_268| false)
(= |memory_model::choice_rf_0_78_4_0_F_269| true)
(= |memory_model::choice_ws-ext_0_11_1_39_T_270| true)
(= |memory_model::choice_ws-ext_0_11_2_17_T_271| true)
(= |memory_model::choice_ws-ext_0_11_3_17_T_272| true)
(= |memory_model::choice_ws-ext_0_11_4_38_T_273| true)
(= |memory_model::choice_ws-ext_1_39_2_17_T_274| false)
(= |memory_model::choice_ws-ext_1_39_3_17_T_275| false)
(= |memory_model::choice_ws-ext_1_39_4_38_T_276| true)
(= |memory_model::choice_ws-ext_2_17_3_17_T_277| false)
(= |memory_model::choice_ws-ext_2_17_4_38_T_278| true)
(= |memory_model::choice_ws-ext_3_17_4_38_T_279| true)
(= |memory_model::choice_ws-ext_0_39_1_23_F_280| true)
(= |memory_model::choice_ws-ext_0_39_2_0_F_281| true)
(= |memory_model::choice_ws-ext_1_23_2_0_F_282| true)
(= |memory_model::choice_ws-ext_0_12_1_37_F_283| true)
(= |memory_model::choice_ws-ext_0_12_2_15_F_284| true)
(= |memory_model::choice_ws-ext_0_12_3_15_F_285| true)
(= |memory_model::choice_ws-ext_0_12_4_36_F_286| true)
(= |memory_model::choice_ws-ext_1_37_2_15_F_287| false)
(= |memory_model::choice_ws-ext_1_37_3_15_F_288| false)
(= |memory_model::choice_ws-ext_1_37_4_36_F_289| false)
(= |memory_model::choice_ws-ext_2_15_3_15_F_290| true)
(= |memory_model::choice_ws-ext_2_15_4_36_F_291| false)
(= |memory_model::choice_ws-ext_3_15_4_36_F_292| false)
(= |memory_model::choice_ws-ext_0_13_4_3_F_293| true)
(= |memory_model::choice_ws-ext_0_14_4_11_F_294| true)
(= |memory_model::choice_ws-ext_0_15_4_1_F_295| true)
(= |memory_model::choice_ws-ext_0_16_1_35_F_296| true)
(= |memory_model::choice_ws-ext_0_16_2_13_F_297| true)
(= |memory_model::choice_ws-ext_0_16_3_13_F_298| true)
(= |memory_model::choice_ws-ext_0_16_4_17_F_299| true)
(= |memory_model::choice_ws-ext_0_16_4_34_F_300| true)
(= |memory_model::choice_ws-ext_0_75_1_35_F_301| false)
(= |memory_model::choice_ws-ext_0_75_2_13_F_302| false)
(= |memory_model::choice_ws-ext_0_75_3_13_F_303| false)
(= |memory_model::choice_ws-ext_0_75_4_17_F_304| false)
(= |memory_model::choice_ws-ext_0_75_4_34_F_305| false)
(= |memory_model::choice_ws-ext_1_35_2_13_F_306| false)
(= |memory_model::choice_ws-ext_1_35_3_13_F_307| true)
(= |memory_model::choice_ws-ext_1_35_4_17_F_308| false)
(= |memory_model::choice_ws-ext_1_35_4_34_F_309| true)
(= |memory_model::choice_ws-ext_2_13_3_13_F_310| true)
(= |memory_model::choice_ws-ext_2_13_4_17_F_311| true)
(= |memory_model::choice_ws-ext_2_13_4_34_F_312| true)
(= |memory_model::choice_ws-ext_3_13_4_17_F_313| false)
(= |memory_model::choice_ws-ext_3_13_4_34_F_314| false)
(= |memory_model::choice_ws-ext_0_17_4_18_F_315| true)
(= |memory_model::choice_ws-ext_0_18_4_19_F_316| true)
(= |memory_model::choice_ws-ext_0_20_1_12_F_317| true)
(= |memory_model::choice_ws-ext_0_20_1_32_F_318| true)
(= |memory_model::choice_ws-ext_0_21_2_10_F_319| true)
(= |memory_model::choice_ws-ext_0_22_3_10_F_320| true)
(= |memory_model::choice_ws-ext_0_23_4_13_F_321| true)
(= |memory_model::choice_ws-ext_0_23_4_31_F_322| true)
(= |memory_model::choice_ws-ext_0_24_1_17_F_323| true)
(= |memory_model::choice_ws-ext_0_71_1_17_F_324| false)
(= |memory_model::choice_ws-ext_0_25_1_16_F_325| true)
(= |memory_model::choice_ws-ext_0_25_1_31_F_326| true)
(= |memory_model::choice_ws-ext_0_26_1_14_F_327| true)
(= |memory_model::choice_ws-ext_0_26_2_9_F_328| true)
(= |memory_model::choice_ws-ext_1_14_2_9_F_329| true)
(= |memory_model::choice_ws-ext_0_27_1_13_F_330| true)
(= |memory_model::choice_ws-ext_0_27_3_9_F_331| true)
(= |memory_model::choice_ws-ext_1_13_3_9_F_332| true)
(= |memory_model::choice_ws-ext_0_28_1_15_F_333| true)
(= |memory_model::choice_ws-ext_0_28_4_12_F_334| true)
(= |memory_model::choice_ws-ext_0_28_4_30_F_335| true)
(= |memory_model::choice_ws-ext_1_15_4_12_F_336| true)
(= |memory_model::choice_ws-ext_1_15_4_30_F_337| true)
(= |memory_model::choice_ws-ext_0_31_1_20_F_338| true)
(= |memory_model::choice_ws-ext_0_31_4_16_F_339| true)
(= |memory_model::choice_ws-ext_1_20_4_16_F_340| true)
(= |memory_model::choice_ws-ext_0_32_1_18_F_341| true)
(= |memory_model::choice_ws-ext_0_32_1_34_F_342| true)
(= |memory_model::choice_ws-ext_0_32_2_12_F_343| true)
(= |memory_model::choice_ws-ext_0_32_3_12_F_344| true)
(= |memory_model::choice_ws-ext_0_32_4_14_F_345| true)
(= |memory_model::choice_ws-ext_0_32_4_33_F_346| true)
(= |memory_model::choice_ws-ext_0_74_1_18_F_347| false)
(= |memory_model::choice_ws-ext_0_74_1_34_F_348| false)
(= |memory_model::choice_ws-ext_0_74_2_12_F_349| false)
(= |memory_model::choice_ws-ext_0_74_3_12_F_350| false)
(= |memory_model::choice_ws-ext_0_74_4_14_F_351| false)
(= |memory_model::choice_ws-ext_0_74_4_33_F_352| false)
(= |memory_model::choice_ws-ext_1_18_2_12_F_353| true)
(= |memory_model::choice_ws-ext_1_18_3_12_F_354| true)
(= |memory_model::choice_ws-ext_1_18_4_14_F_355| true)
(= |memory_model::choice_ws-ext_1_18_4_33_F_356| true)
(= |memory_model::choice_ws-ext_1_34_2_12_F_357| false)
(= |memory_model::choice_ws-ext_1_34_3_12_F_358| true)
(= |memory_model::choice_ws-ext_1_34_4_14_F_359| false)
(= |memory_model::choice_ws-ext_1_34_4_33_F_360| true)
(= |memory_model::choice_ws-ext_2_12_3_12_F_361| true)
(= |memory_model::choice_ws-ext_2_12_4_14_F_362| true)
(= |memory_model::choice_ws-ext_2_12_4_33_F_363| true)
(= |memory_model::choice_ws-ext_3_12_4_14_F_364| false)
(= |memory_model::choice_ws-ext_3_12_4_33_F_365| false)
(= |memory_model::choice_ws-ext_0_33_1_21_F_366| true)
(= |memory_model::choice_ws-ext_0_33_4_15_F_367| true)
(= |memory_model::choice_ws-ext_1_21_4_15_F_368| true)
(= |memory_model::choice_ws-ext_0_34_1_19_F_369| true)
(= |memory_model::choice_ws-ext_0_34_1_33_F_370| true)
(= |memory_model::choice_ws-ext_0_34_2_11_F_371| true)
(= |memory_model::choice_ws-ext_0_34_3_11_F_372| true)
(= |memory_model::choice_ws-ext_0_34_4_21_F_373| true)
(= |memory_model::choice_ws-ext_0_34_4_32_F_374| true)
(= |memory_model::choice_ws-ext_0_73_1_19_F_375| false)
(= |memory_model::choice_ws-ext_0_73_1_33_F_376| false)
(= |memory_model::choice_ws-ext_0_73_2_11_F_377| false)
(= |memory_model::choice_ws-ext_0_73_3_11_F_378| false)
(= |memory_model::choice_ws-ext_0_73_4_21_F_379| false)
(= |memory_model::choice_ws-ext_0_73_4_32_F_380| false)
(= |memory_model::choice_ws-ext_1_19_2_11_F_381| true)
(= |memory_model::choice_ws-ext_1_19_3_11_F_382| true)
(= |memory_model::choice_ws-ext_1_19_4_21_F_383| true)
(= |memory_model::choice_ws-ext_1_19_4_32_F_384| true)
(= |memory_model::choice_ws-ext_1_33_2_11_F_385| false)
(= |memory_model::choice_ws-ext_1_33_3_11_F_386| true)
(= |memory_model::choice_ws-ext_1_33_4_21_F_387| false)
(= |memory_model::choice_ws-ext_1_33_4_32_F_388| true)
(= |memory_model::choice_ws-ext_2_11_3_11_F_389| true)
(= |memory_model::choice_ws-ext_2_11_4_21_F_390| true)
(= |memory_model::choice_ws-ext_2_11_4_32_F_391| true)
(= |memory_model::choice_ws-ext_3_11_4_21_F_392| false)
(= |memory_model::choice_ws-ext_3_11_4_32_F_393| false)
(= |memory_model::choice_ws-ext_0_40_2_1_F_394| true)
(= |memory_model::choice_ws-ext_0_40_3_0_F_395| true)
(= |memory_model::choice_ws-ext_2_1_3_0_F_396| true)
(= |memory_model::choice_ws-ext_0_41_3_1_F_397| true)
(= |memory_model::choice_ws-ext_0_41_4_0_F_398| true)
(= |memory_model::choice_ws-ext_3_1_4_0_F_399| true)
(= |memory_model::choice_ws-ext_0_37_4_22_F_400| true)
(= |memory_model::choice_ws-ext_0_38_4_20_F_401| true)
(= |main$tmp_guard0#3| #b00000001)
(= |__CPROVER_next_thread_id#3| #b00000000000000000000000000000001)
(= |__CPROVER_next_thread_id#6| #b00000000000000000000000000000010)
(= |__CPROVER_next_thread_id#9| #b00000000000000000000000000000011)
(= |__unbuffered_cnt#2| #b00000000000000000000000000000100)
(= |b$w_buff0_used#2| #b00000000)
(= |b$r_buff0_thd0#2| #b00000000)
(= |b$w_buff0#2| #b00000000000000000000000000000001)
(= |b$w_buff1_used#2| #b00000000)
(= |b$r_buff1_thd0#2| #b00000000)
(= |b$w_buff1#2| #b00000000000000000000000000000000)
(= |b#2| #b00000000000000000000000000000001)
(= |b#4| #b00000000000000000000000000000001)
(= |b$w_buff0_used#6| #b00000000)
(= |b$w_buff1_used#6| #b00000000)
(= |b$r_buff0_thd0#8| #b00000000)
(= |b$r_buff1_thd0#7| #b00000000)
(= |x#2| #b00000000000000000000000000000010)
(= |y#2| #b00000000000000000000000000000010)
(= |z#2| #b00000000000000000000000000000010)
(= |__unbuffered_p3_EAX#2| #b00000000000000000000000000000001)
(= |__unbuffered_p3_EBX#2| #b00000000000000000000000000000000)
(= |main$tmp_guard1#2| #b00000000)
(= |main$tmp_guard1#3| #b10000000)
(= |main$tmp_guard1#6| #b00000000)
(= |pthread_create::1::this_thread_id!1@0#0| #b10000000000000000000000000000000)
(= |b$w_buff0#4| #b00000000000000000000000000000000)
(= |b$w_buff0_used#11| #b00000000)
(= |b$r_buff0_thd0#11| #b00000000)
(= |b$r_buff1_thd0#9| #b00000000)
(= |b$r_buff1_thd0#10| #b10000000)
(= |b$r_buff0_thd1#2| #b00000000)
(= |b$r_buff1_thd1#2| #b00000000)
(= |b$r_buff1_thd1#3| #b10000000)
(= |b$r_buff0_thd2#2| #b00000000)
(= |b$r_buff1_thd2#2| #b00000000)
(= |b$r_buff1_thd2#3| #b10000000)
(= |b$r_buff0_thd3#2| #b00000000)
(= |b$r_buff1_thd3#2| #b00000000)
(= |b$r_buff1_thd3#3| #b10000000)
(= |b$r_buff0_thd4#2| #b00000000)
(= |b$r_buff1_thd4#2| #b00000000)
(= |b$r_buff1_thd4#3| #b10000000)
(= |b$r_buff0_thd1#4| #b00000001)
(= |x#4| #b00000000000000000000000000000001)
(= |x#5| #b10000000000000000000000000000000)
(= |b$w_buff0_used#14| #b00000001)
(= |b$r_buff0_thd1#6| #b00000001)
(= |b$w_buff0#7| #b00000000000000000000000000000001)
(= |b$w_buff1_used#10| #b00000000)
(= |b$r_buff1_thd1#5| #b00000000)
(= |b$w_buff1#5| #b00000000000000000000000000000000)
(= |b#6| #b00000000000000000000000000000000)
(= |b#8| #b00000000000000000000000000000001)
(= |b$w_buff0_used#18| #b00000000)
(= |b$w_buff1_used#14| #b00000000)
(= |b$r_buff0_thd1#12| #b00000001)
(= |b$r_buff1_thd1#10| #b00000000)
(= |__unbuffered_cnt#4| #b00000000000000000000000000000011)
(= |__unbuffered_cnt#6| #b00000000000000000000000000000100)
(= |pthread_create::1::this_thread_id!2@0#0| #b00000000000000000000000000000000)
(= |b$w_buff0_used#23| #b00000001)
(= |b$r_buff0_thd2#4| #b00000000)
(= |b$w_buff0#9| #b00000000000000000000000000000001)
(= |b$w_buff1_used#17| #b00000000)
(= |b$r_buff1_thd2#5| #b00000000)
(= |b$w_buff1#7| #b00000000000000000000000000000000)
(= |b#10| #b00000000000000000000000000000000)
(= |__unbuffered_cnt#8| #b00000000000000000000000000000001)
(= |pthread_create::1::this_thread_id!3@0#0| #b00000000000000000000000000000000)
(= |b$w_buff0_used#26| #b00000000)
(= |b$r_buff0_thd3#4| #b00000000)
(= |b$w_buff0#11| #b00000000000000000000000000000001)
(= |b$w_buff1_used#20| #b00000000)
(= |b$r_buff1_thd3#5| #b00000000)
(= |b$w_buff1#9| #b00000000000000000000000000000000)
(= |b#13| #b00000000000000000000000000000001)
(= |__unbuffered_cnt#11| #b00000000000000000000000000000010)
(= |pthread_create::1::this_thread_id!4@0#0| #b00000000000000000000000000000000)
(= |a#3| #b00000000000000000000000000000001)
(= |nondet_symex::nondet4| #b10000000000000000000000000000000)
(= |b#16| #b00000000000000000000000000000000)
(= |b$w_buff0_used#29| #b00000001)
(= |b$r_buff0_thd4#4| #b00000000)
(= |b$w_buff1_used#23| #b00000000)
(= |b$r_buff1_thd4#5| #b00000000)
(= |b$w_buff0#13| #b00000000000000000000000000000001)
(= |b$w_buff1#11| #b00000000000000000000000000000000)
(= |b$w_buff0_used#32| #b00000000)
(= |b$r_buff0_thd4#7| #b00000000)
(= |b$w_buff0#16| #b00000000000000000000000000000001)
(= |b$w_buff1_used#26| #b00000000)
(= |b$r_buff1_thd4#8| #b00000000)
(= |b$w_buff1#14| #b00000000000000000000000000000000)
(= |b#20| #b00000000000000000000000000000001)
(= |__unbuffered_cnt#14| #b00000000000000000000000000000000)
(= |__CPROVER_threads_exited#1$wclk$8| #b00001011)
(= |__CPROVER_threads_exited#2$rclk$8| #b11111001)
(= |__CPROVER_threads_exited#5$wclk$8| #b11111000)
(= |__CPROVER_threads_exited#7$wclk$8| #b11011000)
(= |__CPROVER_threads_exited#9$wclk$8| #b11111011)
(= |__CPROVER_threads_exited#4$rclk$8| #b11110011)
(= |__CPROVER_threads_exited#3$wclk$8| #b11111010)
(= |__CPROVER_threads_exited#6$rclk$8| #b11010100)
(= |__CPROVER_threads_exited#8$rclk$8| #b11011011)
(= |x#6$wclk$8| #b00110100)
(= |x#2$rclk$8| #b11111101)
(= |x#7$wclk$8| #b00110101)
(= |x#1$wclk$8| #b00101010)
(= |x#5$rclk$8| #b00110100)
(= |__unbuffered_cnt#7$wclk$8| #b11010001)
(= |__unbuffered_cnt#2$rclk$8| #b11111010)
(= |__unbuffered_cnt#10$wclk$8| #b11001100)
(= |__unbuffered_cnt#13$wclk$8| #b11010000)
(= |__unbuffered_cnt#16$wclk$8| #b11001010)
(= |__unbuffered_cnt#1$wclk$8| #b00001100)
(= |__unbuffered_cnt#4$rclk$8| #b11010001)
(= |__unbuffered_cnt#8$rclk$8| #b11001100)
(= |__unbuffered_cnt#11$rclk$8| #b11010000)
(= |__unbuffered_cnt#14$rclk$8| #b11001010)
(= |__unbuffered_p3_EAX#4$wclk$8| #b01100110)
(= |__unbuffered_p3_EAX#2$rclk$8| #b11111101)
(= |__unbuffered_p3_EBX#4$wclk$8| #b01100111)
(= |__unbuffered_p3_EBX#2$rclk$8| #b11111101)
(= |a#1$wclk$8| #b00001111)
(= |a#3$rclk$8| #b01100110)
(= |b#9$wclk$8| #b01110000)
(= |b#2$rclk$8| #b11111100)
(= |b#12$wclk$8| #b00111001)
(= |b#15$wclk$8| #b11001111)
(= |b#19$wclk$8| #b01100111)
(= |b#22$wclk$8| #b11001001)
(= |b#1$wclk$8| #b00010000)
(= |b#6$rclk$8| #b01110000)
(= |b#5$wclk$8| #b11111100)
(= |b#10$rclk$8| #b00111001)
(= |b#13$rclk$8| #b11001111)
(= |b#16$rclk$8| #b01100111)
(= |b#20$rclk$8| #b11001001)
(= |b$r_buff0_thd0#1$wclk$8| #b00010011)
(= |b$r_buff0_thd0#11$rclk$8| #b00110010)
(= |b$r_buff0_thd0#10$wclk$8| #b11111100)
(= |b$r_buff0_thd1#1$wclk$8| #b00010100)
(= |b$r_buff0_thd1#2$rclk$8| #b00110010)
(= |b$r_buff0_thd1#6$rclk$8| #b01110000)
(= |b$r_buff0_thd2#1$wclk$8| #b00010101)
(= |b$r_buff0_thd2#2$rclk$8| #b00110010)
(= |b$r_buff0_thd2#6$wclk$8| #b00111001)
(= |b$r_buff0_thd2#4$rclk$8| #b00111001)
(= |b$r_buff0_thd3#1$wclk$8| #b00010110)
(= |b$r_buff0_thd3#2$rclk$8| #b00110010)
(= |b$r_buff0_thd3#6$wclk$8| #b11001111)
(= |b$r_buff0_thd3#4$rclk$8| #b11001111)
(= |b$r_buff0_thd4#1$wclk$8| #b00010111)
(= |b$r_buff0_thd4#2$rclk$8| #b00110010)
(= |b$r_buff0_thd4#6$wclk$8| #b01100111)
(= |b$r_buff0_thd4#9$wclk$8| #b11001001)
(= |b$r_buff0_thd4#4$rclk$8| #b01100111)
(= |b$r_buff0_thd4#7$rclk$8| #b11001001)
(= |b$r_buff1_thd0#11$wclk$8| #b00110010)
(= |b$r_buff1_thd0#2$rclk$8| #b11111100)
(= |b$r_buff1_thd0#1$wclk$8| #b00011000)
(= |b$r_buff1_thd0#10$rclk$8| #b00110010)
(= |b$r_buff1_thd0#8$wclk$8| #b11111100)
(= |b$r_buff1_thd1#1$wclk$8| #b00011001)
(= |b$r_buff1_thd1#3$rclk$8| #b00110010)
(= |b$r_buff1_thd1#5$rclk$8| #b01110000)
(= |b$r_buff1_thd2#1$wclk$8| #b00011010)
(= |b$r_buff1_thd2#3$rclk$8| #b00110010)
(= |b$r_buff1_thd2#7$wclk$8| #b00111001)
(= |b$r_buff1_thd2#5$rclk$8| #b00111001)
(= |b$r_buff1_thd2#4$wclk$8| #b00110010)
(= |b$r_buff1_thd3#1$wclk$8| #b00011011)
(= |b$r_buff1_thd3#3$rclk$8| #b00110010)
(= |b$r_buff1_thd3#7$wclk$8| #b11001111)
(= |b$r_buff1_thd3#5$rclk$8| #b11001111)
(= |b$r_buff1_thd3#4$wclk$8| #b00110010)
(= |b$r_buff1_thd4#1$wclk$8| #b00011100)
(= |b$r_buff1_thd4#3$rclk$8| #b00110010)
(= |b$r_buff1_thd4#7$wclk$8| #b01100111)
(= |b$r_buff1_thd4#10$wclk$8| #b11001001)
(= |b$r_buff1_thd4#5$rclk$8| #b01100111)
(= |b$r_buff1_thd4#4$wclk$8| #b00110010)
(= |b$r_buff1_thd4#8$rclk$8| #b11001001)
(= |b$w_buff0#6$wclk$8| #b00110010)
(= |b$w_buff0#2$rclk$8| #b11111100)
(= |b$w_buff0#15$wclk$8| #b01100111)
(= |b$w_buff0#1$wclk$8| #b00011111)
(= |b$w_buff0#4$rclk$8| #b00110010)
(= |b$w_buff0#7$rclk$8| #b01110000)
(= |b$w_buff0#9$rclk$8| #b00111001)
(= |b$w_buff0#11$rclk$8| #b11001111)
(= |b$w_buff0#13$rclk$8| #b01100111)
(= |b$w_buff0#16$rclk$8| #b11001001)
(= |b$w_buff0_used#13$wclk$8| #b00110010)
(= |b$w_buff0_used#2$rclk$8| #b11111100)
(= |b$w_buff0_used#22$wclk$8| #b01110000)
(= |b$w_buff0_used#25$wclk$8| #b00111001)
(= |b$w_buff0_used#28$wclk$8| #b11001111)
(= |b$w_buff0_used#31$wclk$8| #b01100111)
(= |b$w_buff0_used#34$wclk$8| #b11001001)
(= |b$w_buff0_used#1$wclk$8| #b00100001)
(= |b$w_buff0_used#11$rclk$8| #b00110010)
(= |b$w_buff0_used#10$wclk$8| #b11111100)
(= |b$w_buff0_used#14$rclk$8| #b01110000)
(= |b$w_buff0_used#23$rclk$8| #b00111001)
(= |b$w_buff0_used#26$rclk$8| #b11001111)
(= |b$w_buff0_used#29$rclk$8| #b01100111)
(= |b$w_buff0_used#32$rclk$8| #b11001001)
(= |b$w_buff1#4$wclk$8| #b00110010)
(= |b$w_buff1#2$rclk$8| #b11111100)
(= |b$w_buff1#13$wclk$8| #b01100111)
(= |b$w_buff1#1$wclk$8| #b00100010)
(= |b$w_buff1#5$rclk$8| #b01110000)
(= |b$w_buff1#7$rclk$8| #b00111001)
(= |b$w_buff1#9$rclk$8| #b11001111)
(= |b$w_buff1#11$rclk$8| #b01100111)
(= |b$w_buff1#14$rclk$8| #b11001001)
(= |b$w_buff1_used#9$wclk$8| #b00110010)
(= |b$w_buff1_used#2$rclk$8| #b11111100)
(= |b$w_buff1_used#16$wclk$8| #b01110000)
(= |b$w_buff1_used#19$wclk$8| #b00111001)
(= |b$w_buff1_used#22$wclk$8| #b11001111)
(= |b$w_buff1_used#25$wclk$8| #b01100111)
(= |b$w_buff1_used#28$wclk$8| #b11001001)
(= |b$w_buff1_used#1$wclk$8| #b00100100)
(= |b$w_buff1_used#10$rclk$8| #b01110000)
(= |b$w_buff1_used#8$wclk$8| #b11111100)
(= |b$w_buff1_used#17$rclk$8| #b00111001)
(= |b$w_buff1_used#20$rclk$8| #b11001111)
(= |b$w_buff1_used#23$rclk$8| #b01100111)
(= |b$w_buff1_used#26$rclk$8| #b11001001)
(= |main$tmp_guard1#5| #b00000000)
(= |y#4$wclk$8| #b00111000)
(= |y#2$rclk$8| #b11111101)
(= |y#5$wclk$8| #b01001100)
(= |z#4$wclk$8| #b01001110)
(= |z#2$rclk$8| #b11111101)
(= |z#5$wclk$8| #b01100100)
(= |__unbuffered_p3_EAX#1$wclk$8| #b00001101)
(= |__unbuffered_p3_EBX#1$wclk$8| #b00001110)
(= |a#2$wclk$8| #b01100101)
(= |b$flush_delayed#1$wclk$8| #b00010001)
(= |b$flush_delayed#3$wclk$8| #b01100111)
(= |b$mem_tmp#1$wclk$8| #b00010010)
(= |b$mem_tmp#2$wclk$8| #b01100111)
(= |b$r_buff0_thd1#5$wclk$8| #b00110010)
(= |b$r_buff0_thd1#14$wclk$8| #b01110000)
(= |b$r_buff1_thd1#4$wclk$8| #b00110010)
(= |b$r_buff1_thd1#11$wclk$8| #b01110000)
(= |y#1$wclk$8| #b00101011)
(= |z#1$wclk$8| #b00101100)
(= |weak$$choice0#1$wclk$8| #b00101000)
(= |weak$$choice0#2$wclk$8| #b01100111)
(= |weak$$choice2#1$wclk$8| #b00101001)
(= |weak$$choice2#2$wclk$8| #b01100111)
(= t1$45$spwnclk$8 #b00110000)
(= t1$50$spwnclk$8 #b00110100)
(= t1$55$spwnclk$8 #b00111111)
(= t1$60$spwnclk$8 #b01100011)
(= |main::1::t1252!0@1$wclk$8| #b00000000)
(= |main::1::t1253!0@1$wclk$8| #b00000001)
(= |main::1::t1254!0@1$wclk$8| #b00000010)
(= |__CPROVER_dead_object#1$wclk$8| #b00000011)
(= |__CPROVER_deallocated#1$wclk$8| #b00000100)
(= |__CPROVER_malloc_is_new_array#1$wclk$8| #b00000101)
(= |__CPROVER_malloc_object#1$wclk$8| #b00000110)
(= |__CPROVER_malloc_size#1$wclk$8| #b00000111)
(= |__CPROVER_memory_leak#1$wclk$8| #b00001000)
(= |__CPROVER_next_thread_id#1$wclk$8| #b00001001)
(= |__CPROVER_pipe_count#1$wclk$8| #b00001010)
(= |b$read_delayed#1$wclk$8| #b00011101)
(= |b$read_delayed_var#1$wclk$8| #b00011110)
(= |main$tmp_guard0#1$wclk$8| #b00100101)
(= |main$tmp_guard1#1$wclk$8| #b00100110)
(= |main::1::t1251!0@1#1$wclk$8| #b00101101)
(= |__CPROVER_next_thread_id#2$wclk$8| #b00101110)
(= |main::1::t1251!0@1#2$wclk$8| #b00101111)
(= |main::1::t1252!0@1#1$wclk$8| #b00110001)
(= |__CPROVER_next_thread_id#3$rclk$8| #b00110010)
(= |__CPROVER_next_thread_id#5$wclk$8| #b00110010)
(= |main::1::t1252!0@1#2$wclk$8| #b00110011)
(= |main::1::t1253!0@1#1$wclk$8| #b00110110)
(= |__CPROVER_next_thread_id#6$rclk$8| #b00110111)
(= |__CPROVER_next_thread_id#8$wclk$8| #b00110111)
(= |main::1::t1253!0@1#2$wclk$8| #b00111110)
(= |main::1::t1254!0@1#1$wclk$8| #b01011110)
(= |__CPROVER_next_thread_id#9$rclk$8| #b01100001)
(= |__CPROVER_next_thread_id#11$wclk$8| #b01100001)
(= |main::1::t1254!0@1#2$wclk$8| #b01100010)
(= |main$tmp_guard0#2$wclk$8| #b11111010)
(= |main$tmp_guard0#3$rclk$8| #b11111011)
(= |b$r_buff0_thd0#2$rclk$8| #b11111100)
(= |main$tmp_guard1#3$rclk$8| #b11111101)
(= |main$tmp_guard1#4$wclk$8| #b11111101)
(= |main$tmp_guard1#5$rclk$8| #b11111110)
(= |main$tmp_guard1#6$rclk$8| #b11111111)
(= array_of.0 @fun_9)
(= |__CPROVER_threads_exited#2| @fun_11)
(= |__CPROVER_threads_exited#4| @fun_11)
(= |__CPROVER_threads_exited#6| @fun_9)
(= |__CPROVER_threads_exited#8| @fun_11)
(function @fun_9
 (type (Array (_ BitVec 32) (_ BitVec 1)))
 (= (@fun_9 #b00000000000000000000000000000000) #b0)
 (default #b1))
(function @fun_11
 (type (Array (_ BitVec 32) (_ BitVec 1)))
 (default #b1))

real	0m0.034s
user	0m0.030s
sys	0m0.003s
State: AC Run_time: 0.03562211990356445